p ds 20 5
1 2
1 3
1 4
1 6
1 7
1 8
1 9
1 11
1 12
1 13
1 15
1 16
1 17
1 19
1 20
2 7
2 8
2 9
2 11
2 12
2 13
2 14
2 15
2 16
2 19
3 4
3 5
3 6
3 7
3 8
3 9
3 10
3 11
3 13
3 14
3 15
3 16
3 17
3 19
3 20
4 5
4 6
4 9
4 10
4 14
4 15
4 17
5 6
5 7
5 8
5 10
5 12
5 13
5 17
5 20
6 7
6 9
6 10
6 11
6 12
6 13
6 14
6 15
7 8
7 11
7 15
7 16
7 18
7 19
7 20
8 9
8 10
8 11
8 12
8 13
8 14
8 15
8 17
8 18
9 10
9 12
9 14
9 15
9 16
9 18
9 19
9 20
10 11
10 12
10 14
10 15
10 16
10 17
10 18
10 19
10 20
11 14
11 16
11 18
11 19
11 20
12 14
12 15
12 16
13 14
13 15
13 17
13 19
14 15
14 16
14 17
14 18
14 20
15 16
15 17
15 20
16 17
16 18
16 19
16 20
17 18
17 19
17 20
